\ENCODING=ISO-8859-1
\Problem name: ilog.cplex

Minimize
 obj1: 98921 x1 + 95406 x2 + 93114 x3 + 103665 x4 + 99671 x5 + 94117 x6
       + 98466 x7 + 97997 x8 + 109541 x9 + 97095 x10 + 96814 x11 + 94685 x12
       + 94466 x13 + 92460 x14 + 94913 x15 + 91347 x16 + 95800 x17 + 103022 x18
       + 92507 x19 + 102379 x20 + 94704 x21 + 93754 x22 + 108356 x23
       + 97627 x24 + 106485 x25 + 95133 x26 + 106278 x27 + 97865 x28
       + 100688 x29 + 106040 x30 + 98476 x31 + 92667 x32 + 107148 x33
       + 91409 x34 + 93183 x35 + 95536 x36 + 108214 x37 + 101781 x38
       + 108947 x39 + 90984 x40 + 93023 x41 + 94664 x42 + 98861 x43 + 98762 x44
       + 100940 x45 + 90865 x46 + 94608 x47 + 101558 x48 + 108215 x49
       + 92890 x50 + 92427 x51 + 94194 x52 + 94383 x53 + 107072 x54
       + 100887 x55 + 94749 x56 + 103116 x57 + 106243 x58 + 93870 x59
       + 91001 x60 + 99190 x61 + 106990 x62 + 100732 x63 + 104134 x64
       + 106374 x65 + 90722 x66 + 94150 x67 + 103063 x68 + 92473 x69
       + 97702 x70 + 93706 x71 + 91115 x72 + 103610 x73 + 106672 x74
       + 105380 x75 + 98470 x76 + 94470 x77 + 95515 x78 + 101195 x79
       + 109744 x80 + 94118 x81 + 100039 x82 + 102910 x83 + 99497 x84
       + 97108 x85 + 92933 x86 + 102201 x87 + 99386 x88 + 99673 x89
       + 104054 x90 + 98866 x91 + 104579 x92 + 109428 x93 + 97529 x94
       + 100020 x95 + 106749 x96 + 96236 x97 + 91219 x98 + 105281 x99
       + 106313 x100 + 101757 x101 + 109720 x102 + 105648 x103 + 107498 x104
       + 105686 x105 + 103346 x106 + 107031 x107 + 96454 x108 + 97818 x109
       + 102435 x110 + 93383 x111 + 104790 x112 + 106770 x113 + 108843 x114
       + 108858 x115 + 108783 x116 + 108615 x117 + 94628 x118 + 103670 x119
       + 107924 x120 + 105591 x121 + 106909 x122 + 95602 x123 + 93292 x124
       + 99316 x125 + 99149 x126 + 101628 x127 + 97470 x128 + 98449 x129
       + 106122 x130 + 102081 x131 + 97968 x132 + 102997 x133 + 101673 x134
       + 99810 x135 + 100169 x136 + 98977 x137 + 92493 x138 + 94992 x139
       + 97444 x140 + 92837 x141 + 106057 x142 + 99702 x143 + 98720 x144
       + 100330 x145 + 104313 x146 + 107909 x147 + 98154 x148 + 103701 x149
       + 95750 x150 + 107354 x151 + 106306 x152 + 95078 x153 + 97080 x154
       + 104111 x155 + 93530 x156 + 93742 x157 + 105001 x158 + 90697 x159
       + 108457 x160 + 100203 x161 + 98373 x162 + 104209 x163 + 107032 x164
       + 91027 x165 + 101620 x166 + 92248 x167 + 100918 x168 + 104910 x169
       + 101311 x170 + 91293 x171 + 107994 x172 + 102706 x173 + 99576 x174
       + 104684 x175 + 102224 x176 + 101956 x177 + 90395 x178 + 105549 x179
       + 95336 x180 + 98585 x181 + 108190 x182 + 98569 x183 + 105313 x184
       + 109252 x185 + 96666 x186 + 106442 x187 + 97922 x188 + 103636 x189
       + 105032 x190 + 99343 x191 + 96491 x192 + 95921 x193 + 105796 x194
       + 107091 x195 + 99356 x196 + 100640 x197 + 94560 x198 + 102785 x199
       + 97326 x200 + 95352 x201 + 100383 x202 + 98001 x203 + 105446 x204
       + 99729 x205 + 91942 x206 + 109219 x207 + 90441 x208 + 107405 x209
       + 93637 x210 + 100933 x211 + 105584 x212 + 107741 x213 + 99890 x214
       + 99463 x215 + 99130 x216 + 96100 x217 + 95576 x218 + 90773 x219
       + 92476 x220 + 93257 x221 + 95857 x222 + 105425 x223 + 109834 x224
       + 97266 x225 + 109669 x226 + 94308 x227 + 102517 x228 + 94390 x229
       + 107663 x230 + 109892 x231 + 107768 x232 + 99627 x233 + 97634 x234
       + 109482 x235 + 94657 x236 + 101933 x237 + 98279 x238 + 109336 x239
       + 97643 x240 + 102222 x241 + 95409 x242 + 105435 x243 + 98572 x244
       + 106445 x245 + 93421 x246 + 109916 x247 + 96842 x248 + 97130 x249
       + 94638 x250 + 106795 x251 + 101079 x252 + 90214 x253 + 101078 x254
       + 105527 x255 + 102293 x256 + 90979 x257 + 94370 x258 + 106372 x259
       + 93841 x260 + 91784 x261 + 109799 x262 + 105613 x263 + 99040 x264
       + 102426 x265 + 94575 x266 + 102900 x267 + 100503 x268 + 101434 x269
       + 94494 x270 + 105195 x271 + 109425 x272 + 105343 x273 + 103974 x274
       + 105868 x275 + 91700 x276 + 97403 x277 + 105846 x278 + 107204 x279
       + 96938 x280 + 97187 x281 + 99372 x282 + 109905 x283 + 96363 x284
       + 108224 x285 + 107582 x286 + 94135 x287 + 106018 x288 + 92030 x289
       + 108388 x290 + 103241 x291 + 92848 x292 + 103825 x293 + 107798 x294
       + 93479 x295 + 92959 x296 + 107725 x297 + 108149 x298 + 90921 x299
       + 25518 x300 + 20014 x301 + 19748 x302 + 19306 x303 + 21265 x304
       + 20382 x305 + 19231 x306 + 21079 x307 + 18759 x308 + 18583 x309
       + 20470 x310 + 19863 x311 + 21274 x312 + 18632 x313 + 19369 x314
       + 20050 x315 + 20925 x316 + 20320 x317 + 19454 x318 + 21507 x319
       + 20828 x320 + 19254 x321 + 19638 x322 + 18440 x323 + 20121 x324
       + 21583 x325 + 19739 x326 + 18159 x327 + 18143 x328 + 19656 x329
       + 21720 x330 + 21829 x331 + 20813 x332 + 19169 x333 + 18591 x334
       + 19302 x335 + 18430 x336 + 20993 x337 + 18302 x338 + 18435 x339
       + 21669 x340 + 21924 x341 + 18726 x342 + 20053 x343 + 19517 x344
       + 20004 x345 + 19944 x346 + 18795 x347 + 19183 x348 + 19848 x349
       + 19537 x350 + 21556 x351 + 19725 x352 + 19559 x353 + 21509 x354
       + 21098 x355 + 18195 x356 + 19376 x357 + 19663 x358 + 18610 x359
       + 28133 x360
Subject To
 c1:   x2 - x5 + x13 + x14 + x15 - x16 + x21 - x24 - x25 + x27 + x28 + x32
       + x42 - x53  = 0
 c2:   x62 - x65 + x73 + x74 + x75 - x76 + x81 - x84 - x85 + x87 + x88 + x92
       + x102 - x113  = 0
 c3:   x122 - x125 + x133 + x134 + x135 - x136 + x141 - x144 - x145 + x147
       + x148 + x152 + x162 - x173  = 0
 c4:   x182 - x185 + x193 + x194 + x195 - x196 + x201 - x204 - x205 + x207
       + x208 + x212 + x222 - x233  = 0
 c5:   x242 - x245 + x253 + x254 + x255 - x256 + x261 - x264 - x265 + x267
       + x268 + x272 + x282 - x293  = 0
 c6:   x1 + x7 + x12 - x14 + x26 + x30 + x37 + x39 - x43 + x44 - x45 - x49
       - x55  = 0
 c7:   x61 + x67 + x72 - x74 + x86 + x90 + x97 + x99 - x103 + x104 - x105
       - x109 - x115  = 0
 c8:   x121 + x127 + x132 - x134 + x146 + x150 + x157 + x159 - x163 + x164
       - x165 - x169 - x175  = 0
 c9:   x181 + x187 + x192 - x194 + x206 + x210 + x217 + x219 - x223 + x224
       - x225 - x229 - x235  = 0
 c10:  x241 + x247 + x252 - x254 + x266 + x270 + x277 + x279 - x283 + x284
       - x285 - x289 - x295  = 0
 c11:  - x13 + x17 + x20 - x22 + x25 - x26 + x34 - x50 - x54 - x60  = 0
 c12:  - x73 + x77 + x80 - x82 + x85 - x86 + x94 - x110 - x114 - x120  = 0
 c13:  - x133 + x137 + x140 - x142 + x145 - x146 + x154 - x170 - x174 - x180
        = -1
 c14:  - x193 + x197 + x200 - x202 + x205 - x206 + x214 - x230 - x234 - x240
        = 0
 c15:  - x253 + x257 + x260 - x262 + x265 - x266 + x274 - x290 - x294 - x300
        = 1
 c16:  x18 + x19 - x21 - x30 - x35 - x40 + x45 - x48 + x50 - x58 + x59  = 0
 c17:  x78 + x79 - x81 - x90 - x95 - x100 + x105 - x108 + x110 - x118 + x119
        = 0
 c18:  x138 + x139 - x141 - x150 - x155 - x160 + x165 - x168 + x170 - x178
       + x179  = 0
 c19:  x198 + x199 - x201 - x210 - x215 - x220 + x225 - x228 + x230 - x238
       + x239  = 1
 c20:  x258 + x259 - x261 - x270 - x275 - x280 + x285 - x288 + x290 - x298
       + x299  = 0
 c21:  - x4 + x5 - x6 + x8 - x12 - x17 - x27 + x33 - x36 + x47 + x57 + x58  = 0
 c22:  - x64 + x65 - x66 + x68 - x72 - x77 - x87 + x93 - x96 + x107 + x117
       + x118  = 0
 c23:  - x124 + x125 - x126 + x128 - x132 - x137 - x147 + x153 - x156 + x167
       + x177 + x178  = 0
 c24:  - x184 + x185 - x186 + x188 - x192 - x197 - x207 + x213 - x216 + x227
       + x237 + x238  = 0
 c25:  - x244 + x245 - x246 + x248 - x252 - x257 - x267 + x273 - x276 + x287
       + x297 + x298  = 0
 c26:  x3 - x18 - x20 - x23 + x24 - x28 - x29 - x33 - x37 + x40 + x46 - x56
        = -1
 c27:  x63 - x78 - x80 - x83 + x84 - x88 - x89 - x93 - x97 + x100 + x106 - x116
        = -1
 c28:  x123 - x138 - x140 - x143 + x144 - x148 - x149 - x153 - x157 + x160
       + x166 - x176  = 1
 c29:  x183 - x198 - x200 - x203 + x204 - x208 - x209 - x213 - x217 + x220
       + x226 - x236  = 0
 c30:  x243 - x258 - x260 - x263 + x264 - x268 - x269 - x273 - x277 + x280
       + x286 - x296  = -1
 c31:  - x7 + x9 - x11 - x19 - x32 - x34 + x36 + x38 - x46 + x48 + x52 + x60
        = 0
 c32:  - x67 + x69 - x71 - x79 - x92 - x94 + x96 + x98 - x106 + x108 + x112
       + x120  = 0
 c33:  - x127 + x129 - x131 - x139 - x152 - x154 + x156 + x158 - x166 + x168
       + x172 + x180  = 0
 c34:  - x187 + x189 - x191 - x199 - x212 - x214 + x216 + x218 - x226 + x228
       + x232 + x240  = -1
 c35:  - x247 + x249 - x251 - x259 - x272 - x274 + x276 + x278 - x286 + x288
       + x292 + x300  = 0
 c36:  - x1 - x2 - x3 - x10 + x29 + x31 - x41 + x43 - x47 - x52 + x53  = 0
 c37:  - x61 - x62 - x63 - x70 + x89 + x91 - x101 + x103 - x107 - x112 + x113
        = 1
 c38:  - x121 - x122 - x123 - x130 + x149 + x151 - x161 + x163 - x167 - x172
       + x173  = 0
 c39:  - x181 - x182 - x183 - x190 + x209 + x211 - x221 + x223 - x227 - x232
       + x233  = 0
 c40:  - x241 - x242 - x243 - x250 + x269 + x271 - x281 + x283 - x287 - x292
       + x293  = 0
 c41:  x6 - x8 + x10 + x16 + x23 + x35 - x38 - x42 - x44 - x51 + x54 + x55
       - x59  = 1
 c42:  x66 - x68 + x70 + x76 + x83 + x95 - x98 - x102 - x104 - x111 + x114
       + x115 - x119  = 0
 c43:  x126 - x128 + x130 + x136 + x143 + x155 - x158 - x162 - x164 - x171
       + x174 + x175 - x179  = 0
 c44:  x186 - x188 + x190 + x196 + x203 + x215 - x218 - x222 - x224 - x231
       + x234 + x235 - x239  = 0
 c45:  x246 - x248 + x250 + x256 + x263 + x275 - x278 - x282 - x284 - x291
       + x294 + x295 - x299  = 0
 c46:  x4 - x9 + x11 - x15 + x22 - x31 - x39 + x41 + x49 + x51 + x56 - x57  = 0
 c47:  x64 - x69 + x71 - x75 + x82 - x91 - x99 + x101 + x109 + x111 + x116
       - x117  = 0
 c48:  x124 - x129 + x131 - x135 + x142 - x151 - x159 + x161 + x169 + x171
       + x176 - x177  = 0
 c49:  x184 - x189 + x191 - x195 + x202 - x211 - x219 + x221 + x229 + x231
       + x236 - x237  = 0
 c50:  x244 - x249 + x251 - x255 + x262 - x271 - x279 + x281 + x289 + x291
       + x296 - x297  = 0
 c51:  4 x1 + 4 x61 + 4 x121 + 4 x181 + 4 x241 - 10 x301 <= 0
 c52:  4 x2 + 4 x62 + 4 x122 + 4 x182 + 4 x242 - 11 x302 <= 0
 c53:  4 x3 + 4 x63 + 4 x123 + 4 x183 + 4 x243 - 11 x303 <= 0
 c54:  4 x4 + 4 x64 + 4 x124 + 4 x184 + 4 x244 - 9 x304 <= 0
 c55:  4 x5 + 4 x65 + 4 x125 + 4 x185 + 4 x245 - 11 x305 <= 0
 c56:  4 x6 + 4 x66 + 4 x126 + 4 x186 + 4 x246 - 10 x306 <= 0
 c57:  4 x7 + 4 x67 + 4 x127 + 4 x187 + 4 x247 - 9 x307 <= 0
 c58:  4 x8 + 4 x68 + 4 x128 + 4 x188 + 4 x248 - 10 x308 <= 0
 c59:  4 x9 + 4 x69 + 4 x129 + 4 x189 + 4 x249 - 11 x309 <= 0
 c60:  4 x10 + 4 x70 + 4 x130 + 4 x190 + 4 x250 - 11 x310 <= 0
 c61:  4 x11 + 4 x71 + 4 x131 + 4 x191 + 4 x251 - 9 x311 <= 0
 c62:  4 x12 + 4 x72 + 4 x132 + 4 x192 + 4 x252 - 10 x312 <= 0
 c63:  4 x13 + 4 x73 + 4 x133 + 4 x193 + 4 x253 - 9 x313 <= 0
 c64:  4 x14 + 4 x74 + 4 x134 + 4 x194 + 4 x254 - 10 x314 <= 0
 c65:  4 x15 + 4 x75 + 4 x135 + 4 x195 + 4 x255 - 11 x315 <= 0
 c66:  4 x16 + 4 x76 + 4 x136 + 4 x196 + 4 x256 - 11 x316 <= 0
 c67:  4 x17 + 4 x77 + 4 x137 + 4 x197 + 4 x257 - 10 x317 <= 0
 c68:  4 x18 + 4 x78 + 4 x138 + 4 x198 + 4 x258 - 10 x318 <= 0
 c69:  4 x19 + 4 x79 + 4 x139 + 4 x199 + 4 x259 - 10 x319 <= 0
 c70:  4 x20 + 4 x80 + 4 x140 + 4 x200 + 4 x260 - 10 x320 <= 0
 c71:  4 x21 + 4 x81 + 4 x141 + 4 x201 + 4 x261 - 10 x321 <= 0
 c72:  4 x22 + 4 x82 + 4 x142 + 4 x202 + 4 x262 - 9 x322 <= 0
 c73:  4 x23 + 4 x83 + 4 x143 + 4 x203 + 4 x263 - 10 x323 <= 0
 c74:  4 x24 + 4 x84 + 4 x144 + 4 x204 + 4 x264 - 10 x324 <= 0
 c75:  4 x25 + 4 x85 + 4 x145 + 4 x205 + 4 x265 - 9 x325 <= 0
 c76:  4 x26 + 4 x86 + 4 x146 + 4 x206 + 4 x266 - 11 x326 <= 0
 c77:  4 x27 + 4 x87 + 4 x147 + 4 x207 + 4 x267 - 10 x327 <= 0
 c78:  4 x28 + 4 x88 + 4 x148 + 4 x208 + 4 x268 - 11 x328 <= 0
 c79:  4 x29 + 4 x89 + 4 x149 + 4 x209 + 4 x269 - 9 x329 <= 0
 c80:  4 x30 + 4 x90 + 4 x150 + 4 x210 + 4 x270 - 9 x330 <= 0
 c81:  4 x31 + 4 x91 + 4 x151 + 4 x211 + 4 x271 - 11 x331 <= 0
 c82:  4 x32 + 4 x92 + 4 x152 + 4 x212 + 4 x272 - 11 x332 <= 0
 c83:  4 x33 + 4 x93 + 4 x153 + 4 x213 + 4 x273 - 10 x333 <= 0
 c84:  4 x34 + 4 x94 + 4 x154 + 4 x214 + 4 x274 - 10 x334 <= 0
 c85:  4 x35 + 4 x95 + 4 x155 + 4 x215 + 4 x275 - 11 x335 <= 0
 c86:  4 x36 + 4 x96 + 4 x156 + 4 x216 + 4 x276 - 11 x336 <= 0
 c87:  4 x37 + 4 x97 + 4 x157 + 4 x217 + 4 x277 - 11 x337 <= 0
 c88:  4 x38 + 4 x98 + 4 x158 + 4 x218 + 4 x278 - 9 x338 <= 0
 c89:  4 x39 + 4 x99 + 4 x159 + 4 x219 + 4 x279 - 9 x339 <= 0
 c90:  4 x40 + 4 x100 + 4 x160 + 4 x220 + 4 x280 - 9 x340 <= 0
 c91:  4 x41 + 4 x101 + 4 x161 + 4 x221 + 4 x281 - 9 x341 <= 0
 c92:  4 x42 + 4 x102 + 4 x162 + 4 x222 + 4 x282 - 10 x342 <= 0
 c93:  4 x43 + 4 x103 + 4 x163 + 4 x223 + 4 x283 - 9 x343 <= 0
 c94:  4 x44 + 4 x104 + 4 x164 + 4 x224 + 4 x284 - 10 x344 <= 0
 c95:  4 x45 + 4 x105 + 4 x165 + 4 x225 + 4 x285 - 10 x345 <= 0
 c96:  4 x46 + 4 x106 + 4 x166 + 4 x226 + 4 x286 - 9 x346 <= 0
 c97:  4 x47 + 4 x107 + 4 x167 + 4 x227 + 4 x287 - 11 x347 <= 0
 c98:  4 x48 + 4 x108 + 4 x168 + 4 x228 + 4 x288 - 9 x348 <= 0
 c99:  4 x49 + 4 x109 + 4 x169 + 4 x229 + 4 x289 - 11 x349 <= 0
 c100: 4 x50 + 4 x110 + 4 x170 + 4 x230 + 4 x290 - 11 x350 <= 0
 c101: 4 x51 + 4 x111 + 4 x171 + 4 x231 + 4 x291 - 11 x351 <= 0
 c102: 4 x52 + 4 x112 + 4 x172 + 4 x232 + 4 x292 - 11 x352 <= 0
 c103: 4 x53 + 4 x113 + 4 x173 + 4 x233 + 4 x293 - 10 x353 <= 0
 c104: 4 x54 + 4 x114 + 4 x174 + 4 x234 + 4 x294 - 10 x354 <= 0
 c105: 4 x55 + 4 x115 + 4 x175 + 4 x235 + 4 x295 - 11 x355 <= 0
 c106: 4 x56 + 4 x116 + 4 x176 + 4 x236 + 4 x296 - 10 x356 <= 0
 c107: 4 x57 + 4 x117 + 4 x177 + 4 x237 + 4 x297 - 10 x357 <= 0
 c108: 4 x58 + 4 x118 + 4 x178 + 4 x238 + 4 x298 - 10 x358 <= 0
 c109: 4 x59 + 4 x119 + 4 x179 + 4 x239 + 4 x299 - 10 x359 <= 0
 c110: 4 x60 + 4 x120 + 4 x180 + 4 x240 + 4 x300 - 5 x360 <= 0
Bounds
 0 <= x1 <= 1
 0 <= x2 <= 1
 0 <= x3 <= 1
 0 <= x4 <= 1
 0 <= x5 <= 1
 0 <= x6 <= 1
 0 <= x7 <= 1
 0 <= x8 <= 1
 0 <= x9 <= 1
 0 <= x10 <= 1
 0 <= x11 <= 1
 0 <= x12 <= 1
 0 <= x13 <= 1
 0 <= x14 <= 1
 0 <= x15 <= 1
 0 <= x16 <= 1
 0 <= x17 <= 1
 0 <= x18 <= 1
 0 <= x19 <= 1
 0 <= x20 <= 1
 0 <= x21 <= 1
 0 <= x22 <= 1
 0 <= x23 <= 1
 0 <= x24 <= 1
 0 <= x25 <= 1
 0 <= x26 <= 1
 0 <= x27 <= 1
 0 <= x28 <= 1
 0 <= x29 <= 1
 0 <= x30 <= 1
 0 <= x31 <= 1
 0 <= x32 <= 1
 0 <= x33 <= 1
 0 <= x34 <= 1
 0 <= x35 <= 1
 0 <= x36 <= 1
 0 <= x37 <= 1
 0 <= x38 <= 1
 0 <= x39 <= 1
 0 <= x40 <= 1
 0 <= x41 <= 1
 0 <= x42 <= 1
 0 <= x43 <= 1
 0 <= x44 <= 1
 0 <= x45 <= 1
 0 <= x46 <= 1
 0 <= x47 <= 1
 0 <= x48 <= 1
 0 <= x49 <= 1
 0 <= x50 <= 1
 0 <= x51 <= 1
 0 <= x52 <= 1
 0 <= x53 <= 1
 0 <= x54 <= 1
 0 <= x55 <= 1
 0 <= x56 <= 1
 0 <= x57 <= 1
 0 <= x58 <= 1
 0 <= x59 <= 1
 0 <= x60 <= 1
 0 <= x61 <= 1
 0 <= x62 <= 1
 0 <= x63 <= 1
 0 <= x64 <= 1
 0 <= x65 <= 1
 0 <= x66 <= 1
 0 <= x67 <= 1
 0 <= x68 <= 1
 0 <= x69 <= 1
 0 <= x70 <= 1
 0 <= x71 <= 1
 0 <= x72 <= 1
 0 <= x73 <= 1
 0 <= x74 <= 1
 0 <= x75 <= 1
 0 <= x76 <= 1
 0 <= x77 <= 1
 0 <= x78 <= 1
 0 <= x79 <= 1
 0 <= x80 <= 1
 0 <= x81 <= 1
 0 <= x82 <= 1
 0 <= x83 <= 1
 0 <= x84 <= 1
 0 <= x85 <= 1
 0 <= x86 <= 1
 0 <= x87 <= 1
 0 <= x88 <= 1
 0 <= x89 <= 1
 0 <= x90 <= 1
 0 <= x91 <= 1
 0 <= x92 <= 1
 0 <= x93 <= 1
 0 <= x94 <= 1
 0 <= x95 <= 1
 0 <= x96 <= 1
 0 <= x97 <= 1
 0 <= x98 <= 1
 0 <= x99 <= 1
 0 <= x100 <= 1
 0 <= x101 <= 1
 0 <= x102 <= 1
 0 <= x103 <= 1
 0 <= x104 <= 1
 0 <= x105 <= 1
 0 <= x106 <= 1
 0 <= x107 <= 1
 0 <= x108 <= 1
 0 <= x109 <= 1
 0 <= x110 <= 1
 0 <= x111 <= 1
 0 <= x112 <= 1
 0 <= x113 <= 1
 0 <= x114 <= 1
 0 <= x115 <= 1
 0 <= x116 <= 1
 0 <= x117 <= 1
 0 <= x118 <= 1
 0 <= x119 <= 1
 0 <= x120 <= 1
 0 <= x121 <= 1
 0 <= x122 <= 1
 0 <= x123 <= 1
 0 <= x124 <= 1
 0 <= x125 <= 1
 0 <= x126 <= 1
 0 <= x127 <= 1
 0 <= x128 <= 1
 0 <= x129 <= 1
 0 <= x130 <= 1
 0 <= x131 <= 1
 0 <= x132 <= 1
 0 <= x133 <= 1
 0 <= x134 <= 1
 0 <= x135 <= 1
 0 <= x136 <= 1
 0 <= x137 <= 1
 0 <= x138 <= 1
 0 <= x139 <= 1
 0 <= x140 <= 1
 0 <= x141 <= 1
 0 <= x142 <= 1
 0 <= x143 <= 1
 0 <= x144 <= 1
 0 <= x145 <= 1
 0 <= x146 <= 1
 0 <= x147 <= 1
 0 <= x148 <= 1
 0 <= x149 <= 1
 0 <= x150 <= 1
 0 <= x151 <= 1
 0 <= x152 <= 1
 0 <= x153 <= 1
 0 <= x154 <= 1
 0 <= x155 <= 1
 0 <= x156 <= 1
 0 <= x157 <= 1
 0 <= x158 <= 1
 0 <= x159 <= 1
 0 <= x160 <= 1
 0 <= x161 <= 1
 0 <= x162 <= 1
 0 <= x163 <= 1
 0 <= x164 <= 1
 0 <= x165 <= 1
 0 <= x166 <= 1
 0 <= x167 <= 1
 0 <= x168 <= 1
 0 <= x169 <= 1
 0 <= x170 <= 1
 0 <= x171 <= 1
 0 <= x172 <= 1
 0 <= x173 <= 1
 0 <= x174 <= 1
 0 <= x175 <= 1
 0 <= x176 <= 1
 0 <= x177 <= 1
 0 <= x178 <= 1
 0 <= x179 <= 1
 0 <= x180 <= 1
 0 <= x181 <= 1
 0 <= x182 <= 1
 0 <= x183 <= 1
 0 <= x184 <= 1
 0 <= x185 <= 1
 0 <= x186 <= 1
 0 <= x187 <= 1
 0 <= x188 <= 1
 0 <= x189 <= 1
 0 <= x190 <= 1
 0 <= x191 <= 1
 0 <= x192 <= 1
 0 <= x193 <= 1
 0 <= x194 <= 1
 0 <= x195 <= 1
 0 <= x196 <= 1
 0 <= x197 <= 1
 0 <= x198 <= 1
 0 <= x199 <= 1
 0 <= x200 <= 1
 0 <= x201 <= 1
 0 <= x202 <= 1
 0 <= x203 <= 1
 0 <= x204 <= 1
 0 <= x205 <= 1
 0 <= x206 <= 1
 0 <= x207 <= 1
 0 <= x208 <= 1
 0 <= x209 <= 1
 0 <= x210 <= 1
 0 <= x211 <= 1
 0 <= x212 <= 1
 0 <= x213 <= 1
 0 <= x214 <= 1
 0 <= x215 <= 1
 0 <= x216 <= 1
 0 <= x217 <= 1
 0 <= x218 <= 1
 0 <= x219 <= 1
 0 <= x220 <= 1
 0 <= x221 <= 1
 0 <= x222 <= 1
 0 <= x223 <= 1
 0 <= x224 <= 1
 0 <= x225 <= 1
 0 <= x226 <= 1
 0 <= x227 <= 1
 0 <= x228 <= 1
 0 <= x229 <= 1
 0 <= x230 <= 1
 0 <= x231 <= 1
 0 <= x232 <= 1
 0 <= x233 <= 1
 0 <= x234 <= 1
 0 <= x235 <= 1
 0 <= x236 <= 1
 0 <= x237 <= 1
 0 <= x238 <= 1
 0 <= x239 <= 1
 0 <= x240 <= 1
 0 <= x241 <= 1
 0 <= x242 <= 1
 0 <= x243 <= 1
 0 <= x244 <= 1
 0 <= x245 <= 1
 0 <= x246 <= 1
 0 <= x247 <= 1
 0 <= x248 <= 1
 0 <= x249 <= 1
 0 <= x250 <= 1
 0 <= x251 <= 1
 0 <= x252 <= 1
 0 <= x253 <= 1
 0 <= x254 <= 1
 0 <= x255 <= 1
 0 <= x256 <= 1
 0 <= x257 <= 1
 0 <= x258 <= 1
 0 <= x259 <= 1
 0 <= x260 <= 1
 0 <= x261 <= 1
 0 <= x262 <= 1
 0 <= x263 <= 1
 0 <= x264 <= 1
 0 <= x265 <= 1
 0 <= x266 <= 1
 0 <= x267 <= 1
 0 <= x268 <= 1
 0 <= x269 <= 1
 0 <= x270 <= 1
 0 <= x271 <= 1
 0 <= x272 <= 1
 0 <= x273 <= 1
 0 <= x274 <= 1
 0 <= x275 <= 1
 0 <= x276 <= 1
 0 <= x277 <= 1
 0 <= x278 <= 1
 0 <= x279 <= 1
 0 <= x280 <= 1
 0 <= x281 <= 1
 0 <= x282 <= 1
 0 <= x283 <= 1
 0 <= x284 <= 1
 0 <= x285 <= 1
 0 <= x286 <= 1
 0 <= x287 <= 1
 0 <= x288 <= 1
 0 <= x289 <= 1
 0 <= x290 <= 1
 0 <= x291 <= 1
 0 <= x292 <= 1
 0 <= x293 <= 1
 0 <= x294 <= 1
 0 <= x295 <= 1
 0 <= x296 <= 1
 0 <= x297 <= 1
 0 <= x298 <= 1
 0 <= x299 <= 1
 0 <= x300 <= 1
 0 <= x301 <= 1
 0 <= x302 <= 1
 0 <= x303 <= 1
 0 <= x304 <= 1
 0 <= x305 <= 1
 0 <= x306 <= 1
 0 <= x307 <= 1
 0 <= x308 <= 1
 0 <= x309 <= 1
 0 <= x310 <= 1
 0 <= x311 <= 1
 0 <= x312 <= 1
 0 <= x313 <= 1
 0 <= x314 <= 1
 0 <= x315 <= 1
 0 <= x316 <= 1
 0 <= x317 <= 1
 0 <= x318 <= 1
 0 <= x319 <= 1
 0 <= x320 <= 1
 0 <= x321 <= 1
 0 <= x322 <= 1
 0 <= x323 <= 1
 0 <= x324 <= 1
 0 <= x325 <= 1
 0 <= x326 <= 1
 0 <= x327 <= 1
 0 <= x328 <= 1
 0 <= x329 <= 1
 0 <= x330 <= 1
 0 <= x331 <= 1
 0 <= x332 <= 1
 0 <= x333 <= 1
 0 <= x334 <= 1
 0 <= x335 <= 1
 0 <= x336 <= 1
 0 <= x337 <= 1
 0 <= x338 <= 1
 0 <= x339 <= 1
 0 <= x340 <= 1
 0 <= x341 <= 1
 0 <= x342 <= 1
 0 <= x343 <= 1
 0 <= x344 <= 1
 0 <= x345 <= 1
 0 <= x346 <= 1
 0 <= x347 <= 1
 0 <= x348 <= 1
 0 <= x349 <= 1
 0 <= x350 <= 1
 0 <= x351 <= 1
 0 <= x352 <= 1
 0 <= x353 <= 1
 0 <= x354 <= 1
 0 <= x355 <= 1
 0 <= x356 <= 1
 0 <= x357 <= 1
 0 <= x358 <= 1
 0 <= x359 <= 1
 0 <= x360 <= 1
Binaries
 x301  x302  x303  x304  x305  x306  x307  x308  x309  x310  x311  x312  x313 
 x314  x315  x316  x317  x318  x319  x320  x321  x322  x323  x324  x325  x326 
 x327  x328  x329  x330  x331  x332  x333  x334  x335  x336  x337  x338  x339 
 x340  x341  x342  x343  x344  x345  x346  x347  x348  x349  x350  x351  x352 
 x353  x354  x355  x356  x357  x358  x359  x360 
End
